SECTION Graph
Nodes 757
Edges 1493
E 1 20 7
E 1 642 10
E 1 678 57
E 2 3 14
E 2 643 10
E 2 679 57
E 3 4 1
E 3 11 21
E 3 684 57
E 4 12 21
E 4 685 57
E 5 6 1
E 5 234 21
E 6 7 14
E 6 235 21
E 7 8 1
E 7 242 21
E 8 207 7
E 8 243 21
E 9 10 1
E 9 24 7
E 9 612 23
E 9 642 11
E 10 11 14
E 10 614 23
E 10 643 11
E 11 12 1
E 11 628 23
E 12 629 23
E 13 14 1
E 13 600 22
E 13 612 2
E 14 15 14
E 14 614 2
E 15 16 1
E 15 628 2
E 16 629 2
E 17 18 1
E 17 624 10
E 17 627 7
E 17 666 57
E 18 19 14
E 18 625 10
E 18 667 57
E 19 20 1
E 19 636 10
E 19 672 57
E 20 637 10
E 20 673 57
E 21 22 1
E 21 606 12
E 21 609 7
E 21 624 11
E 22 23 14
E 22 607 12
E 22 625 11
E 23 24 1
E 23 616 12
E 23 636 11
E 24 618 12
E 24 637 11
E 25 26 1
E 25 597 7
E 25 599 2
E 25 606 11
E 26 27 14
E 26 600 2
E 26 607 11
E 27 28 1
E 27 616 11
E 28 612 7
E 28 618 11
E 29 30 1
E 29 617 5
E 29 654 46
E 30 31 14
E 30 619 5
E 30 655 46
E 31 32 1
E 31 630 5
E 31 660 46
E 32 631 5
E 32 661 46
E 33 34 1
E 33 601 11
E 33 603 8
E 33 610 10
E 34 35 14
E 34 602 11
E 34 611 10
E 35 36 1
E 35 608 11
E 35 626 10
E 36 609 11
E 36 624 7
E 36 627 10
E 37 38 1
E 37 585 22
E 37 588 11
E 37 601 12
E 38 39 14
E 38 589 11
E 38 602 12
E 39 40 1
E 39 596 11
E 39 608 12
E 40 597 11
E 40 606 7
E 40 609 12
E 41 42 1
E 41 48 7
E 41 583 34
E 42 43 14
E 42 585 34
E 43 44 1
E 43 603 57
E 44 588 30
E 44 599 51
E 45 46 1
E 45 570 7
E 45 575 34
E 46 47 14
E 46 576 34
E 47 48 1
E 47 578 34
E 48 579 34
E 49 50 1
E 49 565 73
E 49 604 51
E 50 51 14
E 50 566 73
E 50 605 51
E 51 52 1
E 51 569 73
E 51 613 51
E 52 570 73
E 52 586 13
E 52 615 51
E 52 617 53
E 53 54 1
E 53 548 7
E 53 551 4
E 54 55 14
E 54 552 4
E 55 56 1
E 56 565 32
E 57 58 1
E 57 231 60
E 57 541 4
E 58 59 14
E 58 542 4
E 59 60 1
E 59 547 4
E 60 548 4
E 61 231 2
E 61 404 39
E 62 233 8
E 62 439 39
E 62 555 83
E 62 571 137
E 63 64 1
E 63 407 5
E 63 442 26
E 64 65 14
E 64 411 5
E 65 66 1
E 65 435 5
E 65 559 132
E 66 439 5
E 66 560 132
E 67 68 1
E 67 380 2
E 67 385 4
E 68 69 14
E 68 382 2
E 68 388 4
E 69 70 1
E 69 402 2
E 69 418 4
E 70 231 39
E 70 404 2
E 70 421 4
E 71 72 1
E 71 380 19
E 72 73 14
E 72 382 19
E 73 74 1
E 73 402 19
E 74 404 19
E 75 76 1
E 75 283 145
E 75 410 7
E 75 504 151
E 75 545 106
E 76 77 14
E 76 415 7
E 76 546 106
E 77 78 1
E 77 438 7
E 77 549 106
E 78 442 7
E 78 550 106
E 79 80 1
E 79 536 7
E 79 538 1
E 80 81 14
E 80 540 1
E 81 82 1
E 81 543 1
E 82 544 1
E 83 84 1
E 83 519 9
E 83 522 7
E 83 529 4
E 84 85 14
E 84 521 9
E 84 530 4
E 85 86 1
E 85 531 9
E 85 537 4
E 86 532 9
E 86 539 4
E 87 88 1
E 87 489 9
E 87 496 7
E 87 506 4
E 88 89 14
E 88 494 9
E 88 508 4
E 89 90 1
E 89 511 9
E 89 526 4
E 90 514 9
E 90 528 4
E 91 92 1
E 91 114 7
E 91 524 4
E 92 93 14
E 92 527 4
E 93 94 1
E 93 534 4
E 94 536 4
E 95 96 1
E 95 118 7
E 95 501 4
E 95 523 16
E 96 97 14
E 96 503 4
E 96 525 16
E 97 98 1
E 97 520 4
E 97 533 16
E 98 522 4
E 98 529 7
E 98 535 16
E 99 100 1
E 99 122 7
E 99 466 4
E 99 483 8
E 100 101 14
E 100 468 4
E 100 485 8
E 101 102 1
E 101 493 4
E 101 505 8
E 102 496 4
E 102 506 7
E 102 507 8
E 103 104 1
E 103 126 7
E 103 448 8
E 104 105 14
E 104 452 8
E 105 106 1
E 105 472 8
E 106 473 7
E 106 475 8
E 107 108 1
E 107 111 21
E 107 134 7
E 108 109 14
E 108 112 21
E 109 110 1
E 109 113 21
E 110 114 21
E 111 112 1
E 111 495 7
E 111 498 4
E 112 113 14
E 112 500 4
E 113 114 1
E 113 516 4
E 114 518 4
E 115 116 1
E 115 459 7
E 115 463 4
E 115 487 12
E 116 117 14
E 116 464 4
E 116 492 12
E 117 118 1
E 117 484 4
E 117 510 12
E 118 488 4
E 118 513 12
E 119 120 1
E 119 422 7
E 119 425 4
E 119 445 8
E 120 121 14
E 120 428 4
E 120 446 8
E 121 122 1
E 121 451 4
E 121 469 8
E 122 455 4
E 122 470 8
E 123 124 1
E 123 383 7
E 123 405 8
E 124 125 14
E 124 406 8
E 125 126 1
E 125 433 8
E 126 434 8
E 127 128 1
E 127 131 21
E 128 129 14
E 128 132 21
E 129 130 1
E 129 133 21
E 130 134 21
E 131 132 1
E 131 486 7
E 132 133 14
E 132 490 7
E 133 134 1
E 133 509 7
E 134 512 7
E 135 136 1
E 135 348 7
E 135 362 10
E 136 137 14
E 136 365 10
E 137 138 1
E 137 381 10
E 138 383 10
E 139 140 1
E 139 424 14
E 140 141 14
E 140 427 14
E 141 142 1
E 141 449 14
E 142 453 14
E 142 486 7
E 143 144 1
E 143 147 21
E 143 394 7
E 143 416 4
E 144 145 14
E 144 384 12
E 144 419 4
E 145 146 1
E 145 412 12
E 145 443 4
E 146 417 12
E 146 444 4
E 146 447 7
E 147 148 1
E 147 367 7
E 147 371 2
E 148 149 14
E 148 374 2
E 148 384 9
E 149 150 1
E 149 392 2
E 149 412 9
E 150 395 2
E 150 408 7
E 150 417 9
E 151 152 1
E 151 345 7
E 151 351 2
E 151 357 11
E 152 153 14
E 152 353 2
E 152 359 11
E 153 154 1
E 153 361 2
E 153 378 11
E 154 364 2
E 154 376 7
E 154 379 11
E 155 156 1
E 155 327 7
E 155 331 2
E 155 336 3
E 156 157 14
E 156 333 2
E 156 337 3
E 157 158 1
E 157 341 2
E 157 346 3
E 158 343 2
E 158 348 3
E 159 160 1
E 159 306 9
E 159 309 7
E 159 331 25
E 160 161 14
E 160 308 9
E 160 333 25
E 161 162 1
E 161 320 9
E 161 341 25
E 162 321 9
E 162 343 25
E 163 164 1
E 163 289 9
E 163 295 7
E 163 306 14
E 164 165 14
E 164 293 9
E 164 308 14
E 165 166 1
E 165 303 9
E 165 320 14
E 166 305 9
E 166 321 14
E 167 168 1
E 167 274 9
E 167 277 7
E 167 289 12
E 168 169 14
E 168 276 9
E 168 293 12
E 169 170 1
E 169 286 9
E 169 303 12
E 170 287 9
E 170 305 12
E 171 172 1
E 171 239 24
E 171 255 7
E 171 266 7
E 172 173 14
E 172 267 7
E 173 174 1
E 173 282 7
E 174 283 7
E 174 410 145
E 175 176 1
E 175 370 4
E 176 177 14
E 176 373 4
E 177 178 1
E 177 391 4
E 178 394 4
E 178 416 7
E 179 180 1
E 179 183 23
E 179 240 9
E 180 181 14
E 180 184 23
E 180 241 9
E 181 182 1
E 181 185 23
E 181 254 9
E 182 186 23
E 182 255 9
E 183 184 1
E 184 185 14
E 185 186 1
E 186 236 7
E 187 188 1
E 187 328 2
E 188 189 14
E 188 329 2
E 189 190 1
E 189 338 2
E 190 339 2
E 190 350 7
E 191 192 1
E 191 312 7
E 191 314 2
E 191 328 19
E 192 193 14
E 192 316 2
E 192 329 19
E 193 194 1
E 193 322 2
E 193 338 19
E 194 324 2
E 194 334 7
E 194 339 19
E 195 196 1
E 195 222 7
E 195 278 25
E 195 299 2
E 196 197 14
E 196 280 25
E 196 301 2
E 197 198 1
E 197 290 25
E 197 311 2
E 198 294 25
E 198 313 2
E 198 315 7
E 199 200 1
E 199 226 7
E 199 256 14
E 199 278 9
E 200 201 14
E 200 257 14
E 200 280 9
E 201 202 1
E 201 270 14
E 201 290 9
E 202 273 14
E 202 288 7
E 202 294 9
E 203 204 1
E 203 237 12
E 203 243 7
E 203 248 2
E 204 205 14
E 204 238 12
E 204 250 2
E 205 206 1
E 205 251 12
E 205 262 2
E 206 253 12
E 206 264 2
E 206 268 7
E 207 208 1
E 207 237 9
E 208 209 14
E 208 238 9
E 209 210 1
E 209 251 9
E 210 249 7
E 210 253 9
E 211 212 1
E 211 298 19
E 212 213 14
E 212 300 19
E 213 214 1
E 213 310 19
E 214 312 19
E 214 328 7
E 215 216 1
E 215 219 23
E 215 298 2
E 216 217 14
E 216 220 23
E 216 300 2
E 217 218 1
E 217 221 23
E 217 310 2
E 218 222 23
E 218 312 2
E 218 314 7
E 219 220 1
E 219 223 34
E 220 221 14
E 220 224 34
E 221 222 1
E 221 269 25
E 222 272 25
E 223 224 1
E 223 227 21
E 224 225 14
E 224 228 21
E 225 226 1
E 225 246 14
E 225 269 9
E 226 247 14
E 226 272 9
E 227 228 1
E 227 234 2
E 228 229 14
E 228 235 2
E 229 230 1
E 229 242 2
E 229 246 7
E 230 243 2
E 230 247 7
E 230 248 7
E 231 232 4
E 232 233 4
E 232 421 39
E 232 541 60
E 233 426 39
E 233 551 83
E 234 235 1
E 235 242 14
E 236 239 8
E 236 397 184
E 237 238 1
E 238 251 14
E 239 407 184
E 240 241 1
E 240 244 7
E 241 245 7
E 241 254 14
E 242 243 1
E 244 245 1
E 244 249 5
E 245 252 5
E 245 260 14
E 246 247 1
E 247 256 7
E 248 250 1
E 248 256 7
E 249 252 1
E 249 258 9
E 250 257 7
E 250 262 14
E 251 253 1
E 252 259 9
E 252 263 14
E 253 258 7
E 254 255 1
E 254 260 7
E 255 261 7
E 256 257 1
E 257 270 14
E 258 259 1
E 258 268 12
E 259 271 12
E 259 275 14
E 260 261 1
E 260 263 5
E 261 265 5
E 261 266 7
E 262 264 1
E 262 270 7
E 263 265 1
E 263 275 9
E 264 273 7
E 265 274 7
E 265 277 9
E 266 267 1
E 266 274 5
E 267 276 5
E 267 282 14
E 268 271 1
E 268 279 9
E 269 272 1
E 270 273 1
E 271 281 9
E 271 284 14
E 272 278 7
E 273 279 7
E 274 276 1
E 275 277 1
E 275 284 12
E 276 286 14
E 277 285 12
E 278 280 1
E 279 281 1
E 279 288 14
E 280 290 14
E 281 291 14
E 281 292 14
E 282 283 1
E 282 286 5
E 283 287 5
E 284 285 1
E 284 292 9
E 285 289 7
E 285 295 9
E 286 287 1
E 288 291 1
E 288 296 9
E 289 293 1
E 290 294 1
E 291 297 9
E 291 302 14
E 292 295 1
E 292 302 14
E 293 303 14
E 294 296 7
E 295 304 14
E 296 297 1
E 296 315 25
E 297 307 14
E 297 317 25
E 298 300 1
E 299 301 1
E 299 314 21
E 300 310 14
E 301 311 14
E 301 316 21
E 302 304 1
E 302 307 9
E 303 305 1
E 304 306 7
E 304 309 9
E 306 308 1
E 307 309 1
E 307 323 25
E 308 320 14
E 309 325 25
E 310 312 1
E 311 313 1
E 311 322 21
E 313 318 7
E 313 324 21
E 314 316 1
E 315 317 1
E 315 318 2
E 316 322 14
E 317 319 2
E 317 323 14
E 318 319 1
E 318 330 21
E 319 326 14
E 319 332 21
E 320 321 1
E 322 324 1
E 323 325 1
E 323 326 2
E 324 330 7
E 325 327 2
E 325 331 7
E 326 327 1
E 326 340 21
E 327 342 21
E 328 329 1
E 329 338 14
E 330 332 1
E 330 334 2
E 331 333 1
E 332 335 2
E 332 340 14
E 333 341 14
E 334 335 1
E 334 347 19
E 335 344 14
E 335 349 19
E 336 337 1
E 336 351 18
E 337 346 14
E 337 353 18
E 338 339 1
E 339 347 7
E 340 342 1
E 340 344 2
E 341 343 1
E 342 345 2
E 342 351 7
E 344 345 1
E 344 356 19
E 345 358 19
E 346 348 1
E 346 361 18
E 347 349 1
E 347 350 2
E 348 364 18
E 349 352 2
E 349 356 14
E 350 352 1
E 350 354 2
E 351 353 1
E 352 355 2
E 352 360 14
E 353 361 14
E 354 355 1
E 354 370 21
E 355 366 14
E 355 373 21
E 356 358 1
E 356 360 2
E 357 359 1
E 357 368 8
E 358 363 2
E 358 368 7
E 359 369 8
E 359 378 14
E 360 363 1
E 360 366 2
E 361 364 1
E 362 365 1
E 362 372 8
E 363 367 2
E 363 371 7
E 364 372 7
E 365 375 8
E 365 381 14
E 366 367 1
E 366 391 21
E 367 394 21
E 368 369 1
E 368 371 2
E 369 374 2
E 369 386 14
E 370 373 1
E 371 374 1
E 372 375 1
E 372 376 2
E 373 391 14
E 374 392 14
E 375 377 2
E 375 393 14
E 376 377 1
E 376 387 11
E 377 390 11
E 377 398 14
E 378 379 1
E 378 386 8
E 379 387 7
E 379 389 8
E 380 382 1
E 381 383 1
E 381 393 8
E 382 402 14
E 383 396 8
E 384 412 14
E 385 388 1
E 385 397 4
E 386 389 1
E 386 392 2
E 387 390 1
E 387 401 8
E 388 399 4
E 388 418 14
E 389 395 2
E 389 401 7
E 390 403 8
E 390 420 14
E 391 394 1
E 392 395 1
E 393 396 1
E 393 398 2
E 396 400 2
E 396 405 7
E 397 399 1
E 397 407 8
E 398 400 1
E 398 420 11
E 399 411 8
E 399 423 14
E 400 409 7
E 400 422 11
E 401 403 1
E 401 408 4
E 402 404 1
E 403 413 4
E 403 431 14
E 405 406 1
E 405 409 2
E 406 414 2
E 406 433 14
E 407 411 1
E 408 413 1
E 408 429 9
E 409 414 1
E 409 425 7
E 410 415 1
E 411 435 14
E 412 417 1
E 413 430 9
E 413 436 14
E 414 428 7
E 414 437 14
E 415 438 14
E 416 419 1
E 416 424 5
E 417 429 7
E 418 421 1
E 418 423 4
E 419 427 5
E 419 443 14
E 420 422 1
E 420 431 8
E 421 426 4
E 422 432 8
E 423 426 1
E 423 435 8
E 424 427 1
E 425 428 1
E 426 439 8
E 427 449 14
E 428 451 14
E 429 430 1
E 429 447 12
E 430 450 12
E 430 456 14
E 431 432 1
E 431 436 4
E 432 440 4
E 432 445 7
E 433 434 1
E 433 437 2
E 434 441 2
E 434 448 7
E 435 439 1
E 436 440 1
E 436 456 9
E 437 441 1
E 437 451 7
E 438 442 1
E 440 454 7
E 440 459 9
E 441 455 7
E 443 444 1
E 443 449 5
E 444 453 5
E 444 458 7
E 445 446 1
E 445 454 4
E 446 457 4
E 446 469 14
E 447 450 1
E 447 458 4
E 448 452 1
E 448 466 9
E 449 453 1
E 450 461 4
E 450 471 14
E 451 455 1
E 452 468 9
E 452 472 14
E 453 465 7
E 454 457 1
E 454 463 5
E 455 466 7
E 456 459 1
E 456 471 12
E 457 464 5
E 457 477 14
E 458 460 1
E 458 461 1
E 459 474 12
E 460 462 1
E 460 465 4
E 461 462 1
E 461 479 14
E 462 467 4
E 462 480 14
E 463 464 1
E 464 484 14
E 465 467 1
E 465 486 14
E 466 468 1
E 467 490 14
E 467 491 14
E 468 493 14
E 469 470 1
E 469 477 4
E 470 478 4
E 470 483 7
E 471 474 1
E 471 479 4
E 472 475 1
E 472 493 9
E 473 476 1
E 473 489 8
E 474 481 4
E 474 487 7
E 475 489 7
E 475 496 9
E 476 494 8
E 476 502 14
E 477 478 1
E 477 484 5
E 478 488 5
E 479 480 1
E 479 481 1
E 480 482 1
E 480 491 4
E 481 482 1
E 481 497 7
E 482 495 4
E 482 498 7
E 483 485 1
E 483 501 9
E 484 488 1
E 485 503 9
E 485 505 14
E 486 490 1
E 487 492 1
E 487 497 4
E 488 501 7
E 489 494 1
E 490 509 14
E 491 495 1
E 491 509 14
E 492 499 4
E 492 510 14
E 493 496 1
E 494 511 14
E 495 512 14
E 497 498 1
E 497 499 1
E 498 500 1
E 499 500 1
E 499 515 14
E 500 516 14
E 501 503 1
E 502 504 1
E 502 511 8
E 503 520 14
E 504 514 8
E 505 507 1
E 505 520 9
E 506 508 1
E 506 519 8
E 507 519 7
E 507 522 9
E 508 521 8
E 508 526 14
E 509 512 1
E 510 513 1
E 510 515 4
E 511 514 1
E 513 517 4
E 514 545 53
E 515 516 1
E 515 517 1
E 516 518 1
E 517 518 1
E 517 523 7
E 518 524 7
E 519 521 1
E 520 522 1
E 521 531 14
E 523 524 1
E 523 525 1
E 524 527 1
E 525 527 1
E 525 533 14
E 526 528 1
E 526 531 8
E 527 534 14
E 528 532 8
E 529 530 1
E 529 538 16
E 530 537 14
E 530 540 16
E 531 532 1
E 532 553 53
E 533 534 1
E 533 535 1
E 534 536 1
E 535 536 1
E 535 538 7
E 537 539 1
E 537 543 16
E 538 540 1
E 539 544 16
E 540 543 14
E 541 542 1
E 541 580 149
E 542 547 14
E 542 581 149
E 543 544 1
E 544 561 53
E 545 546 1
E 545 553 21
E 546 549 14
E 546 554 21
E 547 548 1
E 549 550 1
E 549 557 21
E 550 558 21
E 550 559 22
E 551 552 1
E 551 555 8
E 552 556 8
E 553 554 1
E 553 561 29
E 554 557 14
E 554 562 29
E 555 556 1
E 556 565 35
E 557 558 1
E 557 567 29
E 558 563 22
E 558 568 29
E 559 560 1
E 559 563 21
E 560 564 21
E 560 571 39
E 561 562 1
E 562 567 14
E 563 564 1
E 563 572 29
E 564 573 29
E 564 574 39
E 565 566 1
E 566 569 14
E 567 568 1
E 568 572 22
E 569 570 1
E 571 574 21
E 571 580 60
E 572 573 1
E 573 577 39
E 574 620 106
E 575 576 1
E 575 582 23
E 576 578 14
E 576 584 23
E 577 644 106
E 578 579 1
E 578 590 23
E 579 583 7
E 579 591 23
E 580 581 1
E 581 604 45
E 582 584 1
E 582 586 10
E 583 585 1
E 583 592 23
E 584 587 10
E 584 590 14
E 585 593 23
E 586 587 1
E 587 594 14
E 588 589 1
E 589 596 14
E 590 591 1
E 590 594 10
E 591 592 7
E 591 595 10
E 592 593 1
E 592 598 10
E 593 603 14
E 594 595 1
E 595 598 7
E 596 597 1
E 598 610 23
E 599 600 1
E 601 602 1
E 602 608 14
E 604 605 1
E 604 620 21
E 605 613 14
E 605 621 21
E 606 607 1
E 607 616 14
E 608 609 1
E 610 611 1
E 610 617 6
E 611 619 6
E 611 626 14
E 612 614 1
E 613 615 1
E 613 632 21
E 614 628 14
E 615 622 7
E 615 633 21
E 616 618 1
E 617 619 1
E 619 630 14
E 620 621 1
E 620 644 29
E 621 632 14
E 621 645 29
E 622 623 1
E 623 634 14
E 624 625 1
E 625 636 14
E 626 627 1
E 626 630 6
E 627 631 6
E 628 629 1
E 630 631 1
E 632 633 1
E 632 650 29
E 633 638 7
E 633 651 29
E 634 635 1
E 635 640 7
E 636 637 1
E 637 642 7
E 638 639 1
E 639 646 14
E 640 641 1
E 641 648 14
E 642 643 1
E 644 645 1
E 645 650 14
E 646 647 1
E 647 652 7
E 648 649 1
E 649 654 7
E 650 651 1
E 651 656 7
E 652 653 1
E 653 658 14
E 654 655 1
E 654 664 21
E 655 660 14
E 655 665 21
E 656 657 1
E 657 662 14
E 658 659 1
E 659 664 7
E 660 661 1
E 660 670 21
E 661 666 7
E 661 671 21
E 662 663 1
E 663 668 7
E 664 665 1
E 664 680 29
E 665 670 14
E 665 681 29
E 666 667 1
E 666 676 21
E 667 672 14
E 667 677 21
E 668 669 1
E 669 674 14
E 670 671 1
E 670 686 29
E 671 676 7
E 671 687 29
E 672 673 1
E 672 682 21
E 673 678 7
E 673 683 21
E 674 675 1
E 675 680 7
E 676 677 1
E 676 690 29
E 677 682 14
E 677 691 29
E 678 679 1
E 678 688 21
E 679 684 14
E 679 689 21
E 680 681 1
E 681 686 14
E 682 683 1
E 682 694 29
E 683 688 7
E 683 695 29
E 684 685 1
E 684 692 21
E 685 693 21
E 686 687 1
E 687 690 7
E 688 689 1
E 688 696 29
E 689 692 14
E 689 697 29
E 690 691 1
E 691 694 14
E 692 693 1
E 692 698 29
E 693 699 29
E 694 695 1
E 695 696 7
E 696 697 1
E 697 698 14
E 698 699 1
E 1 700 100000
E 2 700 100000
E 3 700 100000
E 4 700 100000
E 5 701 100000
E 6 701 100000
E 7 701 100000
E 8 701 100000
E 9 702 100000
E 10 702 100000
E 11 702 100000
E 12 702 100000
E 13 703 100000
E 14 703 100000
E 15 703 100000
E 16 703 100000
E 17 704 100000
E 18 704 100000
E 19 704 100000
E 20 704 100000
E 21 705 100000
E 22 705 100000
E 23 705 100000
E 24 705 100000
E 25 706 100000
E 26 706 100000
E 27 706 100000
E 28 706 100000
E 29 707 100000
E 30 707 100000
E 31 707 100000
E 32 707 100000
E 33 708 100000
E 34 708 100000
E 35 708 100000
E 36 708 100000
E 37 709 100000
E 38 709 100000
E 39 709 100000
E 40 709 100000
E 41 710 100000
E 42 710 100000
E 43 710 100000
E 44 710 100000
E 45 711 100000
E 46 711 100000
E 47 711 100000
E 48 711 100000
E 49 712 100000
E 50 712 100000
E 51 712 100000
E 52 712 100000
E 53 713 100000
E 54 713 100000
E 55 713 100000
E 56 713 100000
E 57 714 100000
E 58 714 100000
E 59 714 100000
E 60 714 100000
E 61 715 100000
E 62 715 100000
E 63 716 100000
E 64 716 100000
E 65 716 100000
E 66 716 100000
E 67 717 100000
E 68 717 100000
E 69 717 100000
E 70 717 100000
E 71 718 100000
E 72 718 100000
E 73 718 100000
E 74 718 100000
E 75 719 100000
E 76 719 100000
E 77 719 100000
E 78 719 100000
E 79 720 100000
E 80 720 100000
E 81 720 100000
E 82 720 100000
E 83 721 100000
E 84 721 100000
E 85 721 100000
E 86 721 100000
E 87 722 100000
E 88 722 100000
E 89 722 100000
E 90 722 100000
E 91 723 100000
E 92 723 100000
E 93 723 100000
E 94 723 100000
E 95 724 100000
E 96 724 100000
E 97 724 100000
E 98 724 100000
E 99 725 100000
E 100 725 100000
E 101 725 100000
E 102 725 100000
E 103 726 100000
E 104 726 100000
E 105 726 100000
E 106 726 100000
E 107 727 100000
E 108 727 100000
E 109 727 100000
E 110 727 100000
E 111 728 100000
E 112 728 100000
E 113 728 100000
E 114 728 100000
E 115 729 100000
E 116 729 100000
E 117 729 100000
E 118 729 100000
E 119 730 100000
E 120 730 100000
E 121 730 100000
E 122 730 100000
E 123 731 100000
E 124 731 100000
E 125 731 100000
E 126 731 100000
E 127 732 100000
E 128 732 100000
E 129 732 100000
E 130 732 100000
E 131 733 100000
E 132 733 100000
E 133 733 100000
E 134 733 100000
E 135 734 100000
E 136 734 100000
E 137 734 100000
E 138 734 100000
E 139 735 100000
E 140 735 100000
E 141 735 100000
E 142 735 100000
E 143 736 100000
E 144 736 100000
E 145 736 100000
E 146 736 100000
E 147 737 100000
E 148 737 100000
E 149 737 100000
E 150 737 100000
E 151 738 100000
E 152 738 100000
E 153 738 100000
E 154 738 100000
E 155 739 100000
E 156 739 100000
E 157 739 100000
E 158 739 100000
E 159 740 100000
E 160 740 100000
E 161 740 100000
E 162 740 100000
E 163 741 100000
E 164 741 100000
E 165 741 100000
E 166 741 100000
E 167 742 100000
E 168 742 100000
E 169 742 100000
E 170 742 100000
E 171 743 100000
E 172 743 100000
E 173 743 100000
E 174 743 100000
E 175 744 100000
E 176 744 100000
E 177 744 100000
E 178 744 100000
E 179 745 100000
E 180 745 100000
E 181 745 100000
E 182 745 100000
E 183 746 100000
E 184 746 100000
E 185 746 100000
E 186 746 100000
E 187 747 100000
E 188 747 100000
E 189 747 100000
E 190 747 100000
E 191 748 100000
E 192 748 100000
E 193 748 100000
E 194 748 100000
E 195 749 100000
E 196 749 100000
E 197 749 100000
E 198 749 100000
E 199 750 100000
E 200 750 100000
E 201 750 100000
E 202 750 100000
E 203 751 100000
E 204 751 100000
E 205 751 100000
E 206 751 100000
E 207 752 100000
E 208 752 100000
E 209 752 100000
E 210 752 100000
E 211 753 100000
E 212 753 100000
E 213 753 100000
E 214 753 100000
E 215 754 100000
E 216 754 100000
E 217 754 100000
E 218 754 100000
E 219 755 100000
E 220 755 100000
E 221 755 100000
E 222 755 100000
E 223 756 100000
E 224 756 100000
E 225 756 100000
E 226 756 100000
E 227 757 100000
E 228 757 100000
E 229 757 100000
E 230 757 100000
E 231 715 100000
E 232 715 100000
E 233 715 100000
END

SECTION Terminals
Terminals 58
T 700
T 701
T 702
T 703
T 704
T 705
T 706
T 707
T 708
T 709
T 710
T 711
T 712
T 713
T 714
T 715
T 716
T 717
T 718
T 719
T 720
T 721
T 722
T 723
T 724
T 725
T 726
T 727
T 728
T 729
T 730
T 731
T 732
T 733
T 734
T 735
T 736
T 737
T 738
T 739
T 740
T 741
T 742
T 743
T 744
T 745
T 746
T 747
T 748
T 749
T 750
T 751
T 752
T 753
T 754
T 755
T 756
T 757
END

SECTION Tree Decomposition
c We do not guarantee that this tree decomposition has minimum width.
s td 140 23 757
b 1 565 573 574 581
b 2 114 154 171 174 186 283 348 361 387 403 436 459 487 499 516 565 573 574 581
b 3 155 337 342 344 349 350 114 154 171 174 186 283 348 361 387 403 436 459 487 499 516
b 4 502 514 532 544 565 573 574 581 114 154 171 174 186 283 348 361 387 403 436 459 487 499 516
b 5 206 210 251 279 291 307 325 171 174 186 283 348 361 155 337 342 344 349 350
b 6 35 37 44 602 627 661 670 681 708 565 573 574 581
b 7 99 106 118 468 472 483 501 510 114 154 348 361 387 403 436 459 487 499 516 502 514 532 544
b 8 146 413 419 424 429 443 114 154 361 387 403 436 459 487 499 516 155 337 342 344 349 350
b 9 195 199 214 218 257 262 280 310 155 342 344 349 350 206 210 251 279 291 307 325
b 10 43 593 598 615 617 638 656 565 573 574 581 35 37 44 602 627 661 670 681 708
b 11 63 65 560 565 573 574 581 171 174 186 283 502 514 532 544
b 12 13 17 18 24 612 636 35 37 44 602 627 661 670 681 708
b 13 166 167 249 252 275 285 293 303 171 174 186 283 348 361 155 337 206 210 251 279 291 307 325
b 14 406 409 420 422 437 455 154 348 361 387 403 436 459 487 499 99 106 118 468 472 483 501 510
b 15 100 505 522 529 537 540 114 499 516 502 514 532 544 99 106 118 468 472 483 501 510
b 16 197 198 313 324 334 155 342 344 349 350 206 279 291 307 325 195 199 214 218 257 262 280 310
b 17 143 360 367 154 361 387 403 155 337 342 344 349 350 146 413 419 424 429 443
b 18 69 402 404 418 423 439 717 565 574 581 171 186 63 65 560
b 19 107 453 460 462 480 495 114 436 459 487 499 516 146 413 419 424 429 443
b 20 223 224 225 226 206 210 251 195 199 214 218 257 262 280 310
b 21 20 678 689 698 661 670 681 13 17 18 24 612 636
b 22 654 665 35 37 602 627 661 670 681 708 43 593 598 615 617 638 656
b 23 45 586 565 573 574 581 37 44 43 593 598 615 617 638 656
b 24 292 348 361 155 337 206 210 251 279 291 307 325 166 167 249 252 275 285 293 303
b 25 369 371 378 154 361 387 403 155 337 342 344 349 146 413 419 429 443 143 360 367
b 26 138 383 396 154 348 361 387 403 99 106 468 472 406 409 420 422 437 455
b 27 260 261 171 174 186 283 166 167 249 252 275 285 293 303
b 28 79 114 499 516 544 118 483 501 510 100 505 522 529 537 540
b 29 87 88 489 526 502 514 532 544 99 106 468 472 100 505 522 529 537 540
b 30 445 457 484 403 436 459 487 499 99 118 483 501 510 406 409 420 422 437 455
b 31 296 155 342 344 349 206 279 291 307 325 199 257 262 280 197 198 313 324 334
b 32 26 606 609 706 35 37 44 602 627 708 13 17 18 24 612 636
b 33 159 160 320 348 361 155 337 291 307 325 166 167 285 293 303 292
b 34 98 524 525 533 114 499 516 118 483 501 510 100 505 522 529 540 79
b 35 456 471 479 114 436 459 487 499 516 146 413 429 443 107 453 460 462 480 495
b 36 207 230 243 246 206 210 251 199 257 262 223 224 225 226
b 37 62 233 548 565 574 581 560 69 404 418 423 439 717
b 38 550 557 567 573 574 174 283 502 514 532 544 63 65 560
b 39 191 311 316 349 350 195 214 218 280 310 197 198 313 324 334
b 40 519 521 532 544 99 106 468 472 100 505 522 529 537 540 87 88 489 526
b 41 3 4 9 643 13 24 612 636 20 678 689 698
b 42 411 171 186 63 65 560 69 402 404 418 423 439 717
b 43 142 419 424 443 107 453 460 462 480 495
b 44 148 149 150 408 154 387 403 146 413 419 429 443 143 367 369 371 378
b 45 274 171 174 283 166 167 252 275 285 293 303 260 261
b 46 672 682 694 661 670 681 17 18 636 20 678 689 698
b 47 619 630 35 37 602 627 661 670 708 43 593 598 617 654 665
b 48 604 621 650 565 573 574 581 615 617 638 656 45 586
b 49 57 541 574 581 560 69 404 418 423 439 717 62 233 548
b 50 48 583 37 44 43 593 598 45 586
b 51 215 216 217 195 199 214 218 280 310 223 224 225 226
b 52 137 365 375 376 154 348 361 387 403 409 420 422 138 383 396
b 53 428 99 118 483 501 406 409 422 437 455 445 457 484
b 54 75 546 174 283 502 514 532 544 63 550 557 567
b 55 151 359 154 361 155 337 342 344 349 360 367 369 371 378
b 56 126 434 99 106 468 472 406 409 437 455 383 396
b 57 67 68 171 186 63 69 402 404 418 423 717 411
b 58 95 114 499 516 118 483 501 510 100 505 522 98 524 525 533
b 59 122 469 99 118 483 501 409 422 437 455 445 457 484 428
b 60 132 133 134 486 107 453 460 462 480 495 142
b 61 204 238 250 751 206 210 251 199 257 262 226 207 230 243 246
b 62 109 112 114 459 487 499 516 107 480 495 471 479
b 63 332 155 342 344 349 291 307 325 198 313 324 334 296
b 64 22 705 35 627 708 17 18 24 612 636 26 606 609 706
b 65 49 50 51 52 566 569 570 605 613 632 633 651 712 565 615 617 638 656 45 586 604 621 650
b 66 187 188 189 190 192 193 194 322 328 329 338 339 347 747 748 349 350 214 324 334 191 311 316
b 67 168 169 170 172 173 266 267 276 282 286 287 305 742 743 171 174 283 166 167 293 303 261 274
b 68 163 164 165 289 295 302 304 306 308 309 741 291 307 325 166 167 285 293 303 292 159 160 320
b 69 101 102 475 493 496 506 507 508 725 99 106 468 472 100 505 522 87 88 489 526 519 521
b 70 179 180 181 182 183 184 185 240 241 244 245 254 255 745 746 171 186 249 252 260 261
b 71 25 38 39 40 588 589 596 597 599 600 608 709 35 37 44 602 13 26 606 609 706
b 72 115 116 117 431 432 440 454 463 464 492 729 403 436 459 487 499 118 510 420 422 445 457 484
b 73 297 315 317 318 319 323 326 327 330 340 155 342 344 291 307 325 198 313 324 334 296 332
b 74 83 84 85 86 530 531 539 721 532 544 522 529 537 540 526 519 521
b 75 1 2 637 642 679 684 685 692 693 699 700 24 636 20 678 689 698 3 4 9 643
b 76 374 379 386 389 392 395 401 154 387 403 369 371 378 148 149 150 408
b 77 33 34 601 603 610 611 626 35 37 602 627 708 43 593 598 617 619 630
b 78 175 176 177 178 352 354 355 366 370 373 391 394 416 744 349 350 419 424 143 360 367
b 79 377 381 390 393 398 400 387 403 409 420 422 383 396 137 365 375 376
b 80 200 201 202 264 270 273 288 290 294 750 206 279 291 199 257 262 280 197 198 296
b 81 156 157 158 161 162 321 331 333 341 343 346 739 740 348 361 155 337 325 166 159 160 320
b 82 111 113 474 481 482 497 498 500 728 114 459 487 499 516 107 480 495 471 479 109 112
b 83 23 27 28 607 616 618 24 612 636 26 606 706 22 705
b 84 10 11 12 14 15 16 614 628 629 702 703 13 612 3 4 9 643
b 85 89 90 473 476 494 511 528 722 502 514 532 106 87 88 489 526
b 86 345 356 357 358 363 368 342 344 349 360 367 369 371 151 359
b 87 80 81 82 543 720 544 537 540 79
b 88 558 559 563 564 568 572 573 574 65 560 550 557 567
b 89 236 239 385 388 397 399 407 171 186 63 418 423 411 67 68
b 90 253 258 259 268 271 281 284 206 210 251 279 291 249 252 275 285 292
b 91 58 59 60 542 547 714 581 548 57 541
b 92 61 70 231 232 421 426 715 69 404 418 423 439 717 62 233 57 541
b 93 46 47 575 576 578 579 582 584 587 590 591 592 594 595 711 593 598 45 586 48 583
b 94 135 136 362 364 372 734 154 348 361 138 137 365 375 376
b 95 76 77 78 410 415 438 442 549 719 174 63 550 557 75 546
b 96 430 444 447 450 458 461 146 413 429 443 453 460 462 456 471 479
b 97 123 124 125 405 433 731 406 409 437 383 396 126 434
b 98 639 646 647 652 653 657 658 659 662 663 664 668 669 674 675 680 681 638 656 654 665
b 99 203 237 247 248 256 199 257 226 207 230 243 246 204 238 250 751
b 100 513 515 517 518 523 114 499 516 118 510 524 525 95
b 101 5 6 7 8 227 228 229 234 235 242 701 757 223 224 207 230 243 246
b 102 53 54 55 56 551 552 555 556 713 565 62 233 548
b 103 208 209 752 210 251 207 238
b 104 622 623 634 635 640 641 648 649 615 654
b 105 673 683 688 695 696 697 20 678 689 698 672 682 694
b 106 196 299 301 314 749 195 218 280 197 198 191 311 316
b 107 441 437 455 434
b 108 545 553 554 561 562 514 532 544 557 567 75 546
b 109 64 66 716 63 65 560 439 411
b 110 312 214 218 310 191
b 111 571 580 574 581 560 62 541
b 112 139 140 141 427 449 735 419 424 443 453 142
b 113 147 737 143 367 371 148 149 150
b 114 144 145 384 412 417 736 146 419 429 443 143 148 149 150
b 115 19 704 17 18 636 20 672
b 116 666 667 671 676 677 686 687 690 691 661 670 681 17 18 672 682 694
b 117 29 30 31 32 631 655 660 707 627 661 670 617 654 665 619 630
b 118 435 65 423 439 411
b 119 335 344 349 334 332
b 120 577 620 644 645 573 574 604 621 650
b 121 41 42 585 710 37 44 43 593 48 583
b 122 211 212 213 298 300 753 214 310 215 216
b 123 219 220 221 222 269 272 278 755 195 199 218 280 223 224 225 226 215 216 217
b 124 754 218 215 216 217
b 125 414 406 409 437 428
b 126 756 223 224 225 226
b 127 504 502 514 75
b 128 152 153 336 351 353 738 154 361 155 337 342 378 151 359
b 129 103 104 105 448 452 466 726 99 106 468 472 455 126 434
b 130 470 477 478 488 118 483 501 457 484 122 469
b 131 71 72 73 74 380 382 718 402 404 67 68
b 132 96 97 485 503 520 724 483 501 100 505 522 98 525 533 95
b 133 119 120 121 425 446 451 730 409 422 437 455 445 457 428 122 469
b 134 127 128 129 130 131 732 733 132 133 134 486
b 135 465 467 490 491 509 512 453 460 462 480 495 132 133 134 486
b 136 205 206 251 262 204 751
b 137 108 110 727 114 107 109 112
b 138 91 92 93 94 527 534 535 536 538 723 114 529 540 79 98 524 525 533
b 139 21 36 624 625 35 627 708 17 18 636 606 609 22 705
b 140 263 265 277 167 252 275 285 260 261 274
2 1
3 2
4 2
5 3
6 1
7 4
8 3
9 5
10 6
11 4
12 6
13 5
14 7
15 7
16 9
17 8
18 11
19 8
20 9
21 12
22 10
23 10
24 13
25 17
26 14
27 13
28 15
29 15
30 14
31 16
32 12
33 24
34 28
35 19
36 20
37 18
38 11
39 16
40 29
41 21
42 18
43 19
44 25
45 27
46 21
47 22
48 23
49 37
50 23
51 20
52 26
53 30
54 38
55 25
56 26
57 42
58 34
59 53
60 43
61 36
62 35
63 31
64 32
65 48
66 39
67 45
68 33
69 40
70 27
71 32
72 30
73 63
74 40
75 41
76 44
77 47
78 17
79 52
80 31
81 33
82 62
83 64
84 41
85 29
86 55
87 28
88 38
89 57
90 24
91 49
92 49
93 50
94 52
95 54
96 35
97 56
98 22
99 61
100 58
101 36
102 37
103 61
104 22
105 46
106 39
107 56
108 54
109 42
110 39
111 49
112 43
113 44
114 44
115 46
116 46
117 47
118 42
119 63
120 48
121 50
122 51
123 51
124 51
125 53
126 20
127 54
128 55
129 56
130 59
131 57
132 58
133 59
134 60
135 60
136 61
137 62
138 34
139 64
140 45
END

EOF
